
Gurobi 9.0.1 (linux64) logging started Thu Apr 30 16:58:30 2020

Gurobi Optimizer version 9.0.1 build v9.0.1rc0 (linux64)
Optimize a model with 11327 rows, 12060 columns and 198990 nonzeros
Model fingerprint: 0xfa755517
Variable types: 0 continuous, 12060 integer (12032 binary)
Coefficient statistics:
  Matrix range     [1e+00, 1e+01]
  Objective range  [5e+00, 1e+02]
  Bounds range     [1e+00, 1e+00]
  RHS range        [1e+00, 1e+00]

User MIP start produced solution with objective 916 (0.34s)
Loaded user MIP start with objective 916

Presolve removed 928 rows and 1887 columns
Presolve time: 3.29s
Presolved: 10399 rows, 10173 columns, 162246 nonzeros
Variable types: 0 continuous, 10173 integer (10147 binary)

Root simplex log...

Iteration    Objective       Primal Inf.    Dual Inf.      Time
    2063    4.5433347e+02   1.499000e+03   0.000000e+00      5s
    5808    4.8775267e+02   5.711737e+02   0.000000e+00     10s
    7628    4.8924129e+02   1.094658e+03   0.000000e+00     15s
    8993    4.8958106e+02   2.370641e+03   0.000000e+00     20s
   10430    4.8999593e+02   2.137551e+04   0.000000e+00     25s
   11736    4.9022561e+02   2.242619e+02   0.000000e+00     30s
   12881    4.9038486e+02   5.790490e+02   0.000000e+00     35s
   14047    4.9052119e+02   1.183015e+02   0.000000e+00     40s
   15358    4.9057178e+02   3.027474e+00   0.000000e+00     45s
   15574    4.9057245e+02   0.000000e+00   0.000000e+00     46s

Root relaxation: objective 4.905724e+02, 15574 iterations, 42.01 seconds

    Nodes    |    Current Node    |     Objective Bounds      |     Work
 Expl Unexpl |  Obj  Depth IntInf | Incumbent    BestBd   Gap | It/Node Time

     0     0  490.57245    0 3630  916.00000  490.57245  46.4%     -   49s
     0     0  503.32166    0 3654  916.00000  503.32166  45.1%     -  156s
     0     0  512.30801    0 3700  916.00000  512.30801  44.1%     -  220s
     0     0  512.41431    0 3704  916.00000  512.41431  44.1%     -  236s
     0     0  512.42554    0 3677  916.00000  512.42554  44.1%     -  240s
     0     0  512.43487    0 3686  916.00000  512.43487  44.1%     -  245s
     0     0  512.43501    0 3682  916.00000  512.43501  44.1%     -  246s
     0     0  519.17350    0 3636  916.00000  519.17350  43.3%     -  441s
     0     0  520.06563    0 3629  916.00000  520.06563  43.2%     -  508s
     0     0  520.14330    0 3641  916.00000  520.14330  43.2%     -  528s
     0     0  520.22478    0 3647  916.00000  520.22478  43.2%     -  551s
     0     0  520.22597    0 3641  916.00000  520.22597  43.2%     -  553s
     0     0  529.39550    0 3505  916.00000  529.39550  42.2%     -  933s
     0     0  529.90214    0 3528  916.00000  529.90214  42.2%     - 1023s
     0     0  529.92604    0 3501  916.00000  529.92604  42.1%     - 1041s
     0     0  529.93524    0 3515  916.00000  529.93524  42.1%     - 1051s
     0     0  533.01214    0 3568  916.00000  533.01214  41.8%     - 1451s
     0     0  533.46533    0 3583  916.00000  533.46533  41.8%     - 1531s
     0     0  533.68374    0 3578  916.00000  533.68374  41.7%     - 1600s
     0     0  533.71751    0 3595  916.00000  533.71751  41.7%     - 1623s
     0     0  533.72710    0 3594  916.00000  533.72710  41.7%     - 1635s
     0     0  534.39579    0 3641  916.00000  534.39579  41.7%     - 1748s
     0     0  534.52595    0 3626  916.00000  534.52595  41.6%     - 1790s
     0     0  534.56869    0 3624  916.00000  534.56869  41.6%     - 1812s
     0     0  534.57787    0 3643  916.00000  534.57787  41.6%     - 1822s
     0     0  535.29660    0 3646  916.00000  535.29660  41.6%     - 1945s
     0     0  535.48703    0 3644  916.00000  535.48703  41.5%     - 1992s
     0     0  535.52575    0 3620  916.00000  535.52575  41.5%     - 2012s
     0     0  535.54336    0 3641  916.00000  535.54336  41.5%     - 2027s
     0     0  537.37706    0 3647  916.00000  537.37706  41.3%     - 2190s
     0     0  537.53853    0 3649  916.00000  537.53853  41.3%     - 2243s
     0     0  537.56800    0 3647  916.00000  537.56800  41.3%     - 2262s
     0     0  537.57806    0 3649  916.00000  537.57806  41.3%     - 2272s
     0     0  538.58848    0 3685  916.00000  538.58848  41.2%     - 2382s
     0     0  538.66719    0 3687  916.00000  538.66719  41.2%     - 2417s
     0     0  538.68420    0 3654  916.00000  538.68420  41.2%     - 2431s
     0     0  539.14360    0 3677  916.00000  539.14360  41.1%     - 2502s
     0     0  539.31996    0 3660  916.00000  539.31996  41.1%     - 2551s
     0     0  539.36513    0 3692  916.00000  539.36513  41.1%     - 2572s
     0     0  539.37580    0 3690  916.00000  539.37580  41.1%     - 2582s
     0     0  540.17887    0 3646  916.00000  540.17887  41.0%     - 2683s
     0     0  540.27733    0 3663  916.00000  540.27733  41.0%     - 2726s
     0     0  540.30651    0 3667  916.00000  540.30651  41.0%     - 2749s
     0     0  540.31468    0 3663  916.00000  540.31468  41.0%     - 2759s
     0     0  540.60996    0 3596  916.00000  540.60996  41.0%     - 2847s
     0     0  540.66617    0 3629  916.00000  540.66617  41.0%     - 2892s
     0     0  540.67851    0 3642  916.00000  540.67851  41.0%     - 2908s
     0     0  541.21051    0 3639  916.00000  541.21051  40.9%     - 2998s
     0     0  541.25522    0 3638  916.00000  541.25522  40.9%     - 3027s
     0     0  541.26230    0 3651  916.00000  541.26230  40.9%     - 3036s
     0     0  541.71864    0 3624  916.00000  541.71864  40.9%     - 3109s
     0     0  541.77977    0 3627  916.00000  541.77977  40.9%     - 3137s
     0     0  541.79605    0 3642  916.00000  541.79605  40.9%     - 3150s
     0     0  542.40109    0 3654  916.00000  542.40109  40.8%     - 3228s
     0     0  542.45266    0 3665  916.00000  542.45266  40.8%     - 3256s
     0     0  542.46310    0 3672  916.00000  542.46310  40.8%     - 3267s
     0     0  542.89291    0 3645  916.00000  542.89291  40.7%     - 3337s
     0     0  542.96504    0 3639  916.00000  542.96504  40.7%     - 3365s
     0     0  542.97719    0 3659  916.00000  542.97719  40.7%     - 3379s
     0     0  543.44190    0 3641  916.00000  543.44190  40.7%     - 3444s
     0     0  543.49264    0 3677  916.00000  543.49264  40.7%     - 3474s
     0     0  543.50252    0 3683  916.00000  543.50252  40.7%     - 3485s
     0     0  543.63871    0 3684  916.00000  543.63871  40.7%     - 3525s
     0     0  543.63871    0 3683  916.00000  543.63871  40.7%     - 3543s

Cutting planes:
  Gomory: 1
  MIR: 71
  StrongCG: 4
  Zero half: 71
  RLT: 2409

Explored 1 nodes (496420 simplex iterations) in 3600.02 seconds
Thread count was 1 (of 40 available processors)

Solution count 1: 916 

Time limit reached
Best objective 9.160000000000e+02, best bound 5.440000000000e+02, gap 40.6114%

User-callback calls 7699, time in user-callback 0.02 sec
